c Random generated cnf formula, satisfiable: false
p cnf 10 50
2 -1 -8 0
-6 1 10 0
-7 6 -2 0
-3 -4 10 0
-9 4 -7 0
-7 -3 6 0
-3 -7 10 0
10 -7 9 0
-6 -7 -1 0
-5 -9 3 0
3 10 1 0
-3 -7 -6 0
3 5 -4 0
9 5 -1 0
-1 3 8 0
-6 10 -4 0
5 4 -2 0
6 -9 3 0
-5 4 10 0
-3 6 2 0
5 3 7 0
5 10 -4 0
-10 3 7 0
1 9 -6 0
9 3 4 0
7 -2 -10 0
1 -6 -10 0
3 7 -5 0
-10 -5 -2 0
-8 -4 7 0
10 -8 -4 0
-8 -6 -9 0
7 -8 -10 0
-6 -4 -2 0
2 -4 1 0
-2 1 6 0
9 1 6 0
6 -3 7 0
-10 -7 -6 0
-10 7 -6 0
5 -3 -1 0
3 10 6 0
-1 -5 7 0
-9 2 -3 0
-8 6 -5 0
1 -10 3 0
7 -5 -10 0
-7 -10 5 0
-8 -9 -6 0
10 -7 2 0
